pr8_2
0 45 134 145 79 102 111 138 28 55 40 47 133 118 27 13 21 43 95 24 70 64 77 149 48 97 46 140 51 29 61 130 73 50 113 82 144 10 8 139 20 38 96 37 81 6 117 19 41 129 57 91 100 3 26 112 88 69 90 143 105 63 99 65 94 72 75 84 11 92 42 124 126 74 14 31 115 9 23 123 56 108 66 147 17 125 0 33 107 30 68 114 39 109 15 106 127 12 34 62 85 89 32 78 44 52 119 71 16 80 22 76 104 59 49 128 120 18 132 58 98 146 83 25 103 2 116 135 60 7 53 35 36 136 142 86 141 67 110 122 93 131 54 148 137 101 87 2 121 0